#       time        depth ve_stress_xx ve_stress_yy ve_stress_xy beam
           0          500            0            0            0            0
           0         1500            0            0            0    0.0505956
           0         2500            0            0            0     0.356151
           0         3500            0            0            0            0
           0         4500            0            0            0            0
        1000          500      608.134     -608.134     -48356.9  1.58843e-14
        1000         1500     -34929.8      34929.8      -181379    0.0494265
        1000         2500      -128901       128901      -698001     0.357219
        1000         3500      864.236     -864.236     -65560.5  9.82845e-05
        1000         4500      374.495     -374.495       -16119  1.66767e-08
